(set-info :category "industrial")
(set-info :status sat)
(declare-fun x00 () (_ BitVec 8))
(declare-fun x01 () (_ BitVec 8))
(declare-fun x03 () (_ BitVec 8))
(declare-fun x05 () (_ BitVec 8))
(declare-fun x06 () (_ BitVec 8))
(declare-fun x07 () (_ BitVec 8))
(declare-fun x11 () (_ BitVec 8))
(declare-fun x12 () (_ BitVec 8))
(declare-fun x14 () (_ BitVec 8))
(declare-fun x16 () (_ BitVec 8))
(declare-fun x23 () (_ BitVec 8))
(declare-fun x24 () (_ BitVec 8))
(declare-fun x25 () (_ BitVec 8))
(declare-fun x26 () (_ BitVec 8))
(declare-fun x27 () (_ BitVec 8))
(declare-fun x32 () (_ BitVec 8))
(declare-fun x33 () (_ BitVec 8))
(declare-fun x34 () (_ BitVec 8))
(declare-fun x36 () (_ BitVec 8))
(declare-fun x38 () (_ BitVec 8))
(declare-fun x40 () (_ BitVec 8))
(declare-fun x41 () (_ BitVec 8))
(declare-fun x44 () (_ BitVec 8))
(declare-fun x45 () (_ BitVec 8))
(declare-fun x47 () (_ BitVec 8))
(declare-fun x48 () (_ BitVec 8))
(declare-fun x50 () (_ BitVec 8))
(declare-fun x51 () (_ BitVec 8))
(declare-fun x53 () (_ BitVec 8))
(declare-fun x55 () (_ BitVec 8))
(declare-fun x56 () (_ BitVec 8))
(declare-fun x60 () (_ BitVec 8))
(declare-fun x61 () (_ BitVec 8))
(declare-fun x63 () (_ BitVec 8))
(declare-fun x64 () (_ BitVec 8))
(declare-fun x68 () (_ BitVec 8))
(declare-fun x70 () (_ BitVec 8))
(declare-fun x72 () (_ BitVec 8))
(declare-fun x74 () (_ BitVec 8))
(declare-fun x75 () (_ BitVec 8))
(declare-fun x76 () (_ BitVec 8))
(declare-fun x77 () (_ BitVec 8))
(declare-fun x80 () (_ BitVec 8))
(declare-fun x81 () (_ BitVec 8))
(declare-fun x83 () (_ BitVec 8))
(declare-fun x86 () (_ BitVec 8))
(declare-fun x88 () (_ BitVec 8))
(assert (bvult x00 (_ bv9 8)))
(assert (bvult x01 (_ bv9 8)))
(assert (bvult x03 (_ bv9 8)))
(assert (bvult x05 (_ bv9 8)))
(assert (bvult x06 (_ bv9 8)))
(assert (bvult x07 (_ bv9 8)))
(assert (bvult x11 (_ bv9 8)))
(assert (bvult x12 (_ bv9 8)))
(assert (bvult x14 (_ bv9 8)))
(assert (bvult x16 (_ bv9 8)))
(assert (bvult x23 (_ bv9 8)))
(assert (bvult x24 (_ bv9 8)))
(assert (bvult x25 (_ bv9 8)))
(assert (bvult x26 (_ bv9 8)))
(assert (bvult x27 (_ bv9 8)))
(assert (bvult x32 (_ bv9 8)))
(assert (bvult x33 (_ bv9 8)))
(assert (bvult x34 (_ bv9 8)))
(assert (bvult x36 (_ bv9 8)))
(assert (bvult x38 (_ bv9 8)))
(assert (bvult x40 (_ bv9 8)))
(assert (bvult x41 (_ bv9 8)))
(assert (bvult x44 (_ bv9 8)))
(assert (bvult x45 (_ bv9 8)))
(assert (bvult x47 (_ bv9 8)))
(assert (bvult x48 (_ bv9 8)))
(assert (bvult x50 (_ bv9 8)))
(assert (bvult x51 (_ bv9 8)))
(assert (bvult x53 (_ bv9 8)))
(assert (bvult x55 (_ bv9 8)))
(assert (bvult x56 (_ bv9 8)))
(assert (bvult x60 (_ bv9 8)))
(assert (bvult x61 (_ bv9 8)))
(assert (bvult x63 (_ bv9 8)))
(assert (bvult x64 (_ bv9 8)))
(assert (bvult x68 (_ bv9 8)))
(assert (bvult x70 (_ bv9 8)))
(assert (bvult x72 (_ bv9 8)))
(assert (bvult x74 (_ bv9 8)))
(assert (bvult x75 (_ bv9 8)))
(assert (bvult x76 (_ bv9 8)))
(assert (bvult x77 (_ bv9 8)))
(assert (bvult x80 (_ bv9 8)))
(assert (bvult x81 (_ bv9 8)))
(assert (bvult x83 (_ bv9 8)))
(assert (bvult x86 (_ bv9 8)))
(assert (bvult x88 (_ bv9 8)))
(assert (not (= x00 x01)))
(assert (not (= x00 (_ bv9 8))))
(assert (not (= x00 x03)))
(assert (not (= x00 (_ bv1 8))))
(assert (not (= x00 x05)))
(assert (not (= x00 x06)))
(assert (not (= x00 x07)))
(assert (not (= x00 (_ bv5 8))))
(assert (not (= x01 (_ bv9 8))))
(assert (not (= x01 x03)))
(assert (not (= x01 (_ bv1 8))))
(assert (not (= x01 x05)))
(assert (not (= x01 x06)))
(assert (not (= x01 x07)))
(assert (not (= x01 (_ bv5 8))))
(assert (not (= (_ bv9 8) x03)))
(assert (not (= (_ bv9 8) (_ bv1 8))))
(assert (not (= (_ bv9 8) x05)))
(assert (not (= (_ bv9 8) x06)))
(assert (not (= (_ bv9 8) x07)))
(assert (not (= (_ bv9 8) (_ bv5 8))))
(assert (not (= x03 (_ bv1 8))))
(assert (not (= x03 x05)))
(assert (not (= x03 x06)))
(assert (not (= x03 x07)))
(assert (not (= x03 (_ bv5 8))))
(assert (not (= (_ bv1 8) x05)))
(assert (not (= (_ bv1 8) x06)))
(assert (not (= (_ bv1 8) x07)))
(assert (not (= (_ bv1 8) (_ bv5 8))))
(assert (not (= x05 x06)))
(assert (not (= x05 x07)))
(assert (not (= x05 (_ bv5 8))))
(assert (not (= x06 x07)))
(assert (not (= x06 (_ bv5 8))))
(assert (not (= x07 (_ bv5 8))))
(assert (not (= (_ bv1 8) x11)))
(assert (not (= (_ bv1 8) x12)))
(assert (not (= (_ bv1 8) (_ bv8 8))))
(assert (not (= (_ bv1 8) x14)))
(assert (not (= (_ bv1 8) (_ bv2 8))))
(assert (not (= (_ bv1 8) x16)))
(assert (not (= (_ bv1 8) (_ bv3 8))))
(assert (not (= (_ bv1 8) (_ bv6 8))))
(assert (not (= x11 x12)))
(assert (not (= x11 (_ bv8 8))))
(assert (not (= x11 x14)))
(assert (not (= x11 (_ bv2 8))))
(assert (not (= x11 x16)))
(assert (not (= x11 (_ bv3 8))))
(assert (not (= x11 (_ bv6 8))))
(assert (not (= x12 (_ bv8 8))))
(assert (not (= x12 x14)))
(assert (not (= x12 (_ bv2 8))))
(assert (not (= x12 x16)))
(assert (not (= x12 (_ bv3 8))))
(assert (not (= x12 (_ bv6 8))))
(assert (not (= (_ bv8 8) x14)))
(assert (not (= (_ bv8 8) (_ bv2 8))))
(assert (not (= (_ bv8 8) x16)))
(assert (not (= (_ bv8 8) (_ bv3 8))))
(assert (not (= (_ bv8 8) (_ bv6 8))))
(assert (not (= x14 (_ bv2 8))))
(assert (not (= x14 x16)))
(assert (not (= x14 (_ bv3 8))))
(assert (not (= x14 (_ bv6 8))))
(assert (not (= (_ bv2 8) x16)))
(assert (not (= (_ bv2 8) (_ bv3 8))))
(assert (not (= (_ bv2 8) (_ bv6 8))))
(assert (not (= x16 (_ bv3 8))))
(assert (not (= x16 (_ bv6 8))))
(assert (not (= (_ bv3 8) (_ bv6 8))))
(assert (not (= (_ bv4 8) (_ bv8 8))))
(assert (not (= (_ bv4 8) (_ bv2 8))))
(assert (not (= (_ bv4 8) x23)))
(assert (not (= (_ bv4 8) x24)))
(assert (not (= (_ bv4 8) x25)))
(assert (not (= (_ bv4 8) x26)))
(assert (not (= (_ bv4 8) x27)))
(assert (not (= (_ bv4 8) (_ bv1 8))))
(assert (not (= (_ bv8 8) (_ bv2 8))))
(assert (not (= (_ bv8 8) x23)))
(assert (not (= (_ bv8 8) x24)))
(assert (not (= (_ bv8 8) x25)))
(assert (not (= (_ bv8 8) x26)))
(assert (not (= (_ bv8 8) x27)))
(assert (not (= (_ bv8 8) (_ bv1 8))))
(assert (not (= (_ bv2 8) x23)))
(assert (not (= (_ bv2 8) x24)))
(assert (not (= (_ bv2 8) x25)))
(assert (not (= (_ bv2 8) x26)))
(assert (not (= (_ bv2 8) x27)))
(assert (not (= (_ bv2 8) (_ bv1 8))))
(assert (not (= x23 x24)))
(assert (not (= x23 x25)))
(assert (not (= x23 x26)))
(assert (not (= x23 x27)))
(assert (not (= x23 (_ bv1 8))))
(assert (not (= x24 x25)))
(assert (not (= x24 x26)))
(assert (not (= x24 x27)))
(assert (not (= x24 (_ bv1 8))))
(assert (not (= x25 x26)))
(assert (not (= x25 x27)))
(assert (not (= x25 (_ bv1 8))))
(assert (not (= x26 x27)))
(assert (not (= x26 (_ bv1 8))))
(assert (not (= x27 (_ bv1 8))))
(assert (not (= (_ bv6 8) (_ bv9 8))))
(assert (not (= (_ bv6 8) x32)))
(assert (not (= (_ bv6 8) x33)))
(assert (not (= (_ bv6 8) x34)))
(assert (not (= (_ bv6 8) (_ bv3 8))))
(assert (not (= (_ bv6 8) x36)))
(assert (not (= (_ bv6 8) (_ bv4 8))))
(assert (not (= (_ bv6 8) x38)))
(assert (not (= (_ bv9 8) x32)))
(assert (not (= (_ bv9 8) x33)))
(assert (not (= (_ bv9 8) x34)))
(assert (not (= (_ bv9 8) (_ bv3 8))))
(assert (not (= (_ bv9 8) x36)))
(assert (not (= (_ bv9 8) (_ bv4 8))))
(assert (not (= (_ bv9 8) x38)))
(assert (not (= x32 x33)))
(assert (not (= x32 x34)))
(assert (not (= x32 (_ bv3 8))))
(assert (not (= x32 x36)))
(assert (not (= x32 (_ bv4 8))))
(assert (not (= x32 x38)))
(assert (not (= x33 x34)))
(assert (not (= x33 (_ bv3 8))))
(assert (not (= x33 x36)))
(assert (not (= x33 (_ bv4 8))))
(assert (not (= x33 x38)))
(assert (not (= x34 (_ bv3 8))))
(assert (not (= x34 x36)))
(assert (not (= x34 (_ bv4 8))))
(assert (not (= x34 x38)))
(assert (not (= (_ bv3 8) x36)))
(assert (not (= (_ bv3 8) (_ bv4 8))))
(assert (not (= (_ bv3 8) x38)))
(assert (not (= x36 (_ bv4 8))))
(assert (not (= x36 x38)))
(assert (not (= (_ bv4 8) x38)))
(assert (not (= x40 x41)))
(assert (not (= x40 (_ bv8 8))))
(assert (not (= x40 (_ bv7 8))))
(assert (not (= x40 x44)))
(assert (not (= x40 x45)))
(assert (not (= x40 (_ bv9 8))))
(assert (not (= x40 x47)))
(assert (not (= x40 x48)))
(assert (not (= x41 (_ bv8 8))))
(assert (not (= x41 (_ bv7 8))))
(assert (not (= x41 x44)))
(assert (not (= x41 x45)))
(assert (not (= x41 (_ bv9 8))))
(assert (not (= x41 x47)))
(assert (not (= x41 x48)))
(assert (not (= (_ bv8 8) (_ bv7 8))))
(assert (not (= (_ bv8 8) x44)))
(assert (not (= (_ bv8 8) x45)))
(assert (not (= (_ bv8 8) (_ bv9 8))))
(assert (not (= (_ bv8 8) x47)))
(assert (not (= (_ bv8 8) x48)))
(assert (not (= (_ bv7 8) x44)))
(assert (not (= (_ bv7 8) x45)))
(assert (not (= (_ bv7 8) (_ bv9 8))))
(assert (not (= (_ bv7 8) x47)))
(assert (not (= (_ bv7 8) x48)))
(assert (not (= x44 x45)))
(assert (not (= x44 (_ bv9 8))))
(assert (not (= x44 x47)))
(assert (not (= x44 x48)))
(assert (not (= x45 (_ bv9 8))))
(assert (not (= x45 x47)))
(assert (not (= x45 x48)))
(assert (not (= (_ bv9 8) x47)))
(assert (not (= (_ bv9 8) x48)))
(assert (not (= x47 x48)))
(assert (not (= x50 x51)))
(assert (not (= x50 (_ bv3 8))))
(assert (not (= x50 x53)))
(assert (not (= x50 (_ bv5 8))))
(assert (not (= x50 x55)))
(assert (not (= x50 x56)))
(assert (not (= x50 (_ bv2 8))))
(assert (not (= x50 (_ bv8 8))))
(assert (not (= x51 (_ bv3 8))))
(assert (not (= x51 x53)))
(assert (not (= x51 (_ bv5 8))))
(assert (not (= x51 x55)))
(assert (not (= x51 x56)))
(assert (not (= x51 (_ bv2 8))))
(assert (not (= x51 (_ bv8 8))))
(assert (not (= (_ bv3 8) x53)))
(assert (not (= (_ bv3 8) (_ bv5 8))))
(assert (not (= (_ bv3 8) x55)))
(assert (not (= (_ bv3 8) x56)))
(assert (not (= (_ bv3 8) (_ bv2 8))))
(assert (not (= (_ bv3 8) (_ bv8 8))))
(assert (not (= x53 (_ bv5 8))))
(assert (not (= x53 x55)))
(assert (not (= x53 x56)))
(assert (not (= x53 (_ bv2 8))))
(assert (not (= x53 (_ bv8 8))))
(assert (not (= (_ bv5 8) x55)))
(assert (not (= (_ bv5 8) x56)))
(assert (not (= (_ bv5 8) (_ bv2 8))))
(assert (not (= (_ bv5 8) (_ bv8 8))))
(assert (not (= x55 x56)))
(assert (not (= x55 (_ bv2 8))))
(assert (not (= x55 (_ bv8 8))))
(assert (not (= x56 (_ bv2 8))))
(assert (not (= x56 (_ bv8 8))))
(assert (not (= (_ bv2 8) (_ bv8 8))))
(assert (not (= x60 x61)))
(assert (not (= x60 (_ bv4 8))))
(assert (not (= x60 x63)))
(assert (not (= x60 x64)))
(assert (not (= x60 (_ bv9 8))))
(assert (not (= x60 (_ bv3 8))))
(assert (not (= x60 (_ bv6 8))))
(assert (not (= x60 x68)))
(assert (not (= x61 (_ bv4 8))))
(assert (not (= x61 x63)))
(assert (not (= x61 x64)))
(assert (not (= x61 (_ bv9 8))))
(assert (not (= x61 (_ bv3 8))))
(assert (not (= x61 (_ bv6 8))))
(assert (not (= x61 x68)))
(assert (not (= (_ bv4 8) x63)))
(assert (not (= (_ bv4 8) x64)))
(assert (not (= (_ bv4 8) (_ bv9 8))))
(assert (not (= (_ bv4 8) (_ bv3 8))))
(assert (not (= (_ bv4 8) (_ bv6 8))))
(assert (not (= (_ bv4 8) x68)))
(assert (not (= x63 x64)))
(assert (not (= x63 (_ bv9 8))))
(assert (not (= x63 (_ bv3 8))))
(assert (not (= x63 (_ bv6 8))))
(assert (not (= x63 x68)))
(assert (not (= x64 (_ bv9 8))))
(assert (not (= x64 (_ bv3 8))))
(assert (not (= x64 (_ bv6 8))))
(assert (not (= x64 x68)))
(assert (not (= (_ bv9 8) (_ bv3 8))))
(assert (not (= (_ bv9 8) (_ bv6 8))))
(assert (not (= (_ bv9 8) x68)))
(assert (not (= (_ bv3 8) (_ bv6 8))))
(assert (not (= (_ bv3 8) x68)))
(assert (not (= (_ bv6 8) x68)))
(assert (not (= x70 (_ bv7 8))))
(assert (not (= x70 x72)))
(assert (not (= x70 (_ bv1 8))))
(assert (not (= x70 x74)))
(assert (not (= x70 x75)))
(assert (not (= x70 x76)))
(assert (not (= x70 x77)))
(assert (not (= x70 (_ bv9 8))))
(assert (not (= (_ bv7 8) x72)))
(assert (not (= (_ bv7 8) (_ bv1 8))))
(assert (not (= (_ bv7 8) x74)))
(assert (not (= (_ bv7 8) x75)))
(assert (not (= (_ bv7 8) x76)))
(assert (not (= (_ bv7 8) x77)))
(assert (not (= (_ bv7 8) (_ bv9 8))))
(assert (not (= x72 (_ bv1 8))))
(assert (not (= x72 x74)))
(assert (not (= x72 x75)))
(assert (not (= x72 x76)))
(assert (not (= x72 x77)))
(assert (not (= x72 (_ bv9 8))))
(assert (not (= (_ bv1 8) x74)))
(assert (not (= (_ bv1 8) x75)))
(assert (not (= (_ bv1 8) x76)))
(assert (not (= (_ bv1 8) x77)))
(assert (not (= (_ bv1 8) (_ bv9 8))))
(assert (not (= x74 x75)))
(assert (not (= x74 x76)))
(assert (not (= x74 x77)))
(assert (not (= x74 (_ bv9 8))))
(assert (not (= x75 x76)))
(assert (not (= x75 x77)))
(assert (not (= x75 (_ bv9 8))))
(assert (not (= x76 x77)))
(assert (not (= x76 (_ bv9 8))))
(assert (not (= x77 (_ bv9 8))))
(assert (not (= x80 x81)))
(assert (not (= x80 (_ bv5 8))))
(assert (not (= x80 x83)))
(assert (not (= x80 (_ bv2 8))))
(assert (not (= x80 (_ bv8 8))))
(assert (not (= x80 x86)))
(assert (not (= x80 (_ bv7 8))))
(assert (not (= x80 x88)))
(assert (not (= x81 (_ bv5 8))))
(assert (not (= x81 x83)))
(assert (not (= x81 (_ bv2 8))))
(assert (not (= x81 (_ bv8 8))))
(assert (not (= x81 x86)))
(assert (not (= x81 (_ bv7 8))))
(assert (not (= x81 x88)))
(assert (not (= (_ bv5 8) x83)))
(assert (not (= (_ bv5 8) (_ bv2 8))))
(assert (not (= (_ bv5 8) (_ bv8 8))))
(assert (not (= (_ bv5 8) x86)))
(assert (not (= (_ bv5 8) (_ bv7 8))))
(assert (not (= (_ bv5 8) x88)))
(assert (not (= x83 (_ bv2 8))))
(assert (not (= x83 (_ bv8 8))))
(assert (not (= x83 x86)))
(assert (not (= x83 (_ bv7 8))))
(assert (not (= x83 x88)))
(assert (not (= (_ bv2 8) (_ bv8 8))))
(assert (not (= (_ bv2 8) x86)))
(assert (not (= (_ bv2 8) (_ bv7 8))))
(assert (not (= (_ bv2 8) x88)))
(assert (not (= (_ bv8 8) x86)))
(assert (not (= (_ bv8 8) (_ bv7 8))))
(assert (not (= (_ bv8 8) x88)))
(assert (not (= x86 (_ bv7 8))))
(assert (not (= x86 x88)))
(assert (not (= (_ bv7 8) x88)))
(assert (not (= x00 (_ bv1 8))))
(assert (not (= x00 (_ bv4 8))))
(assert (not (= x00 (_ bv6 8))))
(assert (not (= x00 x40)))
(assert (not (= x00 x50)))
(assert (not (= x00 x60)))
(assert (not (= x00 x70)))
(assert (not (= x00 x80)))
(assert (not (= (_ bv1 8) (_ bv4 8))))
(assert (not (= (_ bv1 8) (_ bv6 8))))
(assert (not (= (_ bv1 8) x40)))
(assert (not (= (_ bv1 8) x50)))
(assert (not (= (_ bv1 8) x60)))
(assert (not (= (_ bv1 8) x70)))
(assert (not (= (_ bv1 8) x80)))
(assert (not (= (_ bv4 8) (_ bv6 8))))
(assert (not (= (_ bv4 8) x40)))
(assert (not (= (_ bv4 8) x50)))
(assert (not (= (_ bv4 8) x60)))
(assert (not (= (_ bv4 8) x70)))
(assert (not (= (_ bv4 8) x80)))
(assert (not (= (_ bv6 8) x40)))
(assert (not (= (_ bv6 8) x50)))
(assert (not (= (_ bv6 8) x60)))
(assert (not (= (_ bv6 8) x70)))
(assert (not (= (_ bv6 8) x80)))
(assert (not (= x40 x50)))
(assert (not (= x40 x60)))
(assert (not (= x40 x70)))
(assert (not (= x40 x80)))
(assert (not (= x50 x60)))
(assert (not (= x50 x70)))
(assert (not (= x50 x80)))
(assert (not (= x60 x70)))
(assert (not (= x60 x80)))
(assert (not (= x70 x80)))
(assert (not (= x01 x11)))
(assert (not (= x01 (_ bv8 8))))
(assert (not (= x01 (_ bv9 8))))
(assert (not (= x01 x41)))
(assert (not (= x01 x51)))
(assert (not (= x01 x61)))
(assert (not (= x01 (_ bv7 8))))
(assert (not (= x01 x81)))
(assert (not (= x11 (_ bv8 8))))
(assert (not (= x11 (_ bv9 8))))
(assert (not (= x11 x41)))
(assert (not (= x11 x51)))
(assert (not (= x11 x61)))
(assert (not (= x11 (_ bv7 8))))
(assert (not (= x11 x81)))
(assert (not (= (_ bv8 8) (_ bv9 8))))
(assert (not (= (_ bv8 8) x41)))
(assert (not (= (_ bv8 8) x51)))
(assert (not (= (_ bv8 8) x61)))
(assert (not (= (_ bv8 8) (_ bv7 8))))
(assert (not (= (_ bv8 8) x81)))
(assert (not (= (_ bv9 8) x41)))
(assert (not (= (_ bv9 8) x51)))
(assert (not (= (_ bv9 8) x61)))
(assert (not (= (_ bv9 8) (_ bv7 8))))
(assert (not (= (_ bv9 8) x81)))
(assert (not (= x41 x51)))
(assert (not (= x41 x61)))
(assert (not (= x41 (_ bv7 8))))
(assert (not (= x41 x81)))
(assert (not (= x51 x61)))
(assert (not (= x51 (_ bv7 8))))
(assert (not (= x51 x81)))
(assert (not (= x61 (_ bv7 8))))
(assert (not (= x61 x81)))
(assert (not (= (_ bv7 8) x81)))
(assert (not (= (_ bv9 8) x12)))
(assert (not (= (_ bv9 8) (_ bv2 8))))
(assert (not (= (_ bv9 8) x32)))
(assert (not (= (_ bv9 8) (_ bv8 8))))
(assert (not (= (_ bv9 8) (_ bv3 8))))
(assert (not (= (_ bv9 8) (_ bv4 8))))
(assert (not (= (_ bv9 8) x72)))
(assert (not (= (_ bv9 8) (_ bv5 8))))
(assert (not (= x12 (_ bv2 8))))
(assert (not (= x12 x32)))
(assert (not (= x12 (_ bv8 8))))
(assert (not (= x12 (_ bv3 8))))
(assert (not (= x12 (_ bv4 8))))
(assert (not (= x12 x72)))
(assert (not (= x12 (_ bv5 8))))
(assert (not (= (_ bv2 8) x32)))
(assert (not (= (_ bv2 8) (_ bv8 8))))
(assert (not (= (_ bv2 8) (_ bv3 8))))
(assert (not (= (_ bv2 8) (_ bv4 8))))
(assert (not (= (_ bv2 8) x72)))
(assert (not (= (_ bv2 8) (_ bv5 8))))
(assert (not (= x32 (_ bv8 8))))
(assert (not (= x32 (_ bv3 8))))
(assert (not (= x32 (_ bv4 8))))
(assert (not (= x32 x72)))
(assert (not (= x32 (_ bv5 8))))
(assert (not (= (_ bv8 8) (_ bv3 8))))
(assert (not (= (_ bv8 8) (_ bv4 8))))
(assert (not (= (_ bv8 8) x72)))
(assert (not (= (_ bv8 8) (_ bv5 8))))
(assert (not (= (_ bv3 8) (_ bv4 8))))
(assert (not (= (_ bv3 8) x72)))
(assert (not (= (_ bv3 8) (_ bv5 8))))
(assert (not (= (_ bv4 8) x72)))
(assert (not (= (_ bv4 8) (_ bv5 8))))
(assert (not (= x72 (_ bv5 8))))
(assert (not (= x03 (_ bv8 8))))
(assert (not (= x03 x23)))
(assert (not (= x03 x33)))
(assert (not (= x03 (_ bv7 8))))
(assert (not (= x03 x53)))
(assert (not (= x03 x63)))
(assert (not (= x03 (_ bv1 8))))
(assert (not (= x03 x83)))
(assert (not (= (_ bv8 8) x23)))
(assert (not (= (_ bv8 8) x33)))
(assert (not (= (_ bv8 8) (_ bv7 8))))
(assert (not (= (_ bv8 8) x53)))
(assert (not (= (_ bv8 8) x63)))
(assert (not (= (_ bv8 8) (_ bv1 8))))
(assert (not (= (_ bv8 8) x83)))
(assert (not (= x23 x33)))
(assert (not (= x23 (_ bv7 8))))
(assert (not (= x23 x53)))
(assert (not (= x23 x63)))
(assert (not (= x23 (_ bv1 8))))
(assert (not (= x23 x83)))
(assert (not (= x33 (_ bv7 8))))
(assert (not (= x33 x53)))
(assert (not (= x33 x63)))
(assert (not (= x33 (_ bv1 8))))
(assert (not (= x33 x83)))
(assert (not (= (_ bv7 8) x53)))
(assert (not (= (_ bv7 8) x63)))
(assert (not (= (_ bv7 8) (_ bv1 8))))
(assert (not (= (_ bv7 8) x83)))
(assert (not (= x53 x63)))
(assert (not (= x53 (_ bv1 8))))
(assert (not (= x53 x83)))
(assert (not (= x63 (_ bv1 8))))
(assert (not (= x63 x83)))
(assert (not (= (_ bv1 8) x83)))
(assert (not (= (_ bv1 8) x14)))
(assert (not (= (_ bv1 8) x24)))
(assert (not (= (_ bv1 8) x34)))
(assert (not (= (_ bv1 8) x44)))
(assert (not (= (_ bv1 8) (_ bv5 8))))
(assert (not (= (_ bv1 8) x64)))
(assert (not (= (_ bv1 8) x74)))
(assert (not (= (_ bv1 8) (_ bv2 8))))
(assert (not (= x14 x24)))
(assert (not (= x14 x34)))
(assert (not (= x14 x44)))
(assert (not (= x14 (_ bv5 8))))
(assert (not (= x14 x64)))
(assert (not (= x14 x74)))
(assert (not (= x14 (_ bv2 8))))
(assert (not (= x24 x34)))
(assert (not (= x24 x44)))
(assert (not (= x24 (_ bv5 8))))
(assert (not (= x24 x64)))
(assert (not (= x24 x74)))
(assert (not (= x24 (_ bv2 8))))
(assert (not (= x34 x44)))
(assert (not (= x34 (_ bv5 8))))
(assert (not (= x34 x64)))
(assert (not (= x34 x74)))
(assert (not (= x34 (_ bv2 8))))
(assert (not (= x44 (_ bv5 8))))
(assert (not (= x44 x64)))
(assert (not (= x44 x74)))
(assert (not (= x44 (_ bv2 8))))
(assert (not (= (_ bv5 8) x64)))
(assert (not (= (_ bv5 8) x74)))
(assert (not (= (_ bv5 8) (_ bv2 8))))
(assert (not (= x64 x74)))
(assert (not (= x64 (_ bv2 8))))
(assert (not (= x74 (_ bv2 8))))
(assert (not (= x05 (_ bv2 8))))
(assert (not (= x05 x25)))
(assert (not (= x05 (_ bv3 8))))
(assert (not (= x05 x45)))
(assert (not (= x05 x55)))
(assert (not (= x05 (_ bv9 8))))
(assert (not (= x05 x75)))
(assert (not (= x05 (_ bv8 8))))
(assert (not (= (_ bv2 8) x25)))
(assert (not (= (_ bv2 8) (_ bv3 8))))
(assert (not (= (_ bv2 8) x45)))
(assert (not (= (_ bv2 8) x55)))
(assert (not (= (_ bv2 8) (_ bv9 8))))
(assert (not (= (_ bv2 8) x75)))
(assert (not (= (_ bv2 8) (_ bv8 8))))
(assert (not (= x25 (_ bv3 8))))
(assert (not (= x25 x45)))
(assert (not (= x25 x55)))
(assert (not (= x25 (_ bv9 8))))
(assert (not (= x25 x75)))
(assert (not (= x25 (_ bv8 8))))
(assert (not (= (_ bv3 8) x45)))
(assert (not (= (_ bv3 8) x55)))
(assert (not (= (_ bv3 8) (_ bv9 8))))
(assert (not (= (_ bv3 8) x75)))
(assert (not (= (_ bv3 8) (_ bv8 8))))
(assert (not (= x45 x55)))
(assert (not (= x45 (_ bv9 8))))
(assert (not (= x45 x75)))
(assert (not (= x45 (_ bv8 8))))
(assert (not (= x55 (_ bv9 8))))
(assert (not (= x55 x75)))
(assert (not (= x55 (_ bv8 8))))
(assert (not (= (_ bv9 8) x75)))
(assert (not (= (_ bv9 8) (_ bv8 8))))
(assert (not (= x75 (_ bv8 8))))
(assert (not (= x06 x16)))
(assert (not (= x06 x26)))
(assert (not (= x06 x36)))
(assert (not (= x06 (_ bv9 8))))
(assert (not (= x06 x56)))
(assert (not (= x06 (_ bv3 8))))
(assert (not (= x06 x76)))
(assert (not (= x06 x86)))
(assert (not (= x16 x26)))
(assert (not (= x16 x36)))
(assert (not (= x16 (_ bv9 8))))
(assert (not (= x16 x56)))
(assert (not (= x16 (_ bv3 8))))
(assert (not (= x16 x76)))
(assert (not (= x16 x86)))
(assert (not (= x26 x36)))
(assert (not (= x26 (_ bv9 8))))
(assert (not (= x26 x56)))
(assert (not (= x26 (_ bv3 8))))
(assert (not (= x26 x76)))
(assert (not (= x26 x86)))
(assert (not (= x36 (_ bv9 8))))
(assert (not (= x36 x56)))
(assert (not (= x36 (_ bv3 8))))
(assert (not (= x36 x76)))
(assert (not (= x36 x86)))
(assert (not (= (_ bv9 8) x56)))
(assert (not (= (_ bv9 8) (_ bv3 8))))
(assert (not (= (_ bv9 8) x76)))
(assert (not (= (_ bv9 8) x86)))
(assert (not (= x56 (_ bv3 8))))
(assert (not (= x56 x76)))
(assert (not (= x56 x86)))
(assert (not (= (_ bv3 8) x76)))
(assert (not (= (_ bv3 8) x86)))
(assert (not (= x76 x86)))
(assert (not (= x07 (_ bv3 8))))
(assert (not (= x07 x27)))
(assert (not (= x07 (_ bv4 8))))
(assert (not (= x07 x47)))
(assert (not (= x07 (_ bv2 8))))
(assert (not (= x07 (_ bv6 8))))
(assert (not (= x07 x77)))
(assert (not (= x07 (_ bv7 8))))
(assert (not (= (_ bv3 8) x27)))
(assert (not (= (_ bv3 8) (_ bv4 8))))
(assert (not (= (_ bv3 8) x47)))
(assert (not (= (_ bv3 8) (_ bv2 8))))
(assert (not (= (_ bv3 8) (_ bv6 8))))
(assert (not (= (_ bv3 8) x77)))
(assert (not (= (_ bv3 8) (_ bv7 8))))
(assert (not (= x27 (_ bv4 8))))
(assert (not (= x27 x47)))
(assert (not (= x27 (_ bv2 8))))
(assert (not (= x27 (_ bv6 8))))
(assert (not (= x27 x77)))
(assert (not (= x27 (_ bv7 8))))
(assert (not (= (_ bv4 8) x47)))
(assert (not (= (_ bv4 8) (_ bv2 8))))
(assert (not (= (_ bv4 8) (_ bv6 8))))
(assert (not (= (_ bv4 8) x77)))
(assert (not (= (_ bv4 8) (_ bv7 8))))
(assert (not (= x47 (_ bv2 8))))
(assert (not (= x47 (_ bv6 8))))
(assert (not (= x47 x77)))
(assert (not (= x47 (_ bv7 8))))
(assert (not (= (_ bv2 8) (_ bv6 8))))
(assert (not (= (_ bv2 8) x77)))
(assert (not (= (_ bv2 8) (_ bv7 8))))
(assert (not (= (_ bv6 8) x77)))
(assert (not (= (_ bv6 8) (_ bv7 8))))
(assert (not (= x77 (_ bv7 8))))
(assert (not (= (_ bv5 8) (_ bv6 8))))
(assert (not (= (_ bv5 8) (_ bv1 8))))
(assert (not (= (_ bv5 8) x38)))
(assert (not (= (_ bv5 8) x48)))
(assert (not (= (_ bv5 8) (_ bv8 8))))
(assert (not (= (_ bv5 8) x68)))
(assert (not (= (_ bv5 8) (_ bv9 8))))
(assert (not (= (_ bv5 8) x88)))
(assert (not (= (_ bv6 8) (_ bv1 8))))
(assert (not (= (_ bv6 8) x38)))
(assert (not (= (_ bv6 8) x48)))
(assert (not (= (_ bv6 8) (_ bv8 8))))
(assert (not (= (_ bv6 8) x68)))
(assert (not (= (_ bv6 8) (_ bv9 8))))
(assert (not (= (_ bv6 8) x88)))
(assert (not (= (_ bv1 8) x38)))
(assert (not (= (_ bv1 8) x48)))
(assert (not (= (_ bv1 8) (_ bv8 8))))
(assert (not (= (_ bv1 8) x68)))
(assert (not (= (_ bv1 8) (_ bv9 8))))
(assert (not (= (_ bv1 8) x88)))
(assert (not (= x38 x48)))
(assert (not (= x38 (_ bv8 8))))
(assert (not (= x38 x68)))
(assert (not (= x38 (_ bv9 8))))
(assert (not (= x38 x88)))
(assert (not (= x48 (_ bv8 8))))
(assert (not (= x48 x68)))
(assert (not (= x48 (_ bv9 8))))
(assert (not (= x48 x88)))
(assert (not (= (_ bv8 8) x68)))
(assert (not (= (_ bv8 8) (_ bv9 8))))
(assert (not (= (_ bv8 8) x88)))
(assert (not (= x68 (_ bv9 8))))
(assert (not (= x68 x88)))
(assert (not (= (_ bv9 8) x88)))
(assert (not (= x00 x01)))
(assert (not (= x00 (_ bv9 8))))
(assert (not (= x00 (_ bv1 8))))
(assert (not (= x00 x11)))
(assert (not (= x00 x12)))
(assert (not (= x00 (_ bv4 8))))
(assert (not (= x00 (_ bv8 8))))
(assert (not (= x00 (_ bv2 8))))
(assert (not (= x01 (_ bv9 8))))
(assert (not (= x01 (_ bv1 8))))
(assert (not (= x01 x11)))
(assert (not (= x01 x12)))
(assert (not (= x01 (_ bv4 8))))
(assert (not (= x01 (_ bv8 8))))
(assert (not (= x01 (_ bv2 8))))
(assert (not (= (_ bv9 8) (_ bv1 8))))
(assert (not (= (_ bv9 8) x11)))
(assert (not (= (_ bv9 8) x12)))
(assert (not (= (_ bv9 8) (_ bv4 8))))
(assert (not (= (_ bv9 8) (_ bv8 8))))
(assert (not (= (_ bv9 8) (_ bv2 8))))
(assert (not (= (_ bv1 8) x11)))
(assert (not (= (_ bv1 8) x12)))
(assert (not (= (_ bv1 8) (_ bv4 8))))
(assert (not (= (_ bv1 8) (_ bv8 8))))
(assert (not (= (_ bv1 8) (_ bv2 8))))
(assert (not (= x11 x12)))
(assert (not (= x11 (_ bv4 8))))
(assert (not (= x11 (_ bv8 8))))
(assert (not (= x11 (_ bv2 8))))
(assert (not (= x12 (_ bv4 8))))
(assert (not (= x12 (_ bv8 8))))
(assert (not (= x12 (_ bv2 8))))
(assert (not (= (_ bv4 8) (_ bv8 8))))
(assert (not (= (_ bv4 8) (_ bv2 8))))
(assert (not (= (_ bv8 8) (_ bv2 8))))
(assert (not (= x03 (_ bv1 8))))
(assert (not (= x03 x05)))
(assert (not (= x03 (_ bv8 8))))
(assert (not (= x03 x14)))
(assert (not (= x03 (_ bv2 8))))
(assert (not (= x03 x23)))
(assert (not (= x03 x24)))
(assert (not (= x03 x25)))
(assert (not (= (_ bv1 8) x05)))
(assert (not (= (_ bv1 8) (_ bv8 8))))
(assert (not (= (_ bv1 8) x14)))
(assert (not (= (_ bv1 8) (_ bv2 8))))
(assert (not (= (_ bv1 8) x23)))
(assert (not (= (_ bv1 8) x24)))
(assert (not (= (_ bv1 8) x25)))
(assert (not (= x05 (_ bv8 8))))
(assert (not (= x05 x14)))
(assert (not (= x05 (_ bv2 8))))
(assert (not (= x05 x23)))
(assert (not (= x05 x24)))
(assert (not (= x05 x25)))
(assert (not (= (_ bv8 8) x14)))
(assert (not (= (_ bv8 8) (_ bv2 8))))
(assert (not (= (_ bv8 8) x23)))
(assert (not (= (_ bv8 8) x24)))
(assert (not (= (_ bv8 8) x25)))
(assert (not (= x14 (_ bv2 8))))
(assert (not (= x14 x23)))
(assert (not (= x14 x24)))
(assert (not (= x14 x25)))
(assert (not (= (_ bv2 8) x23)))
(assert (not (= (_ bv2 8) x24)))
(assert (not (= (_ bv2 8) x25)))
(assert (not (= x23 x24)))
(assert (not (= x23 x25)))
(assert (not (= x24 x25)))
(assert (not (= x06 x07)))
(assert (not (= x06 (_ bv5 8))))
(assert (not (= x06 x16)))
(assert (not (= x06 (_ bv3 8))))
(assert (not (= x06 (_ bv6 8))))
(assert (not (= x06 x26)))
(assert (not (= x06 x27)))
(assert (not (= x06 (_ bv1 8))))
(assert (not (= x07 (_ bv5 8))))
(assert (not (= x07 x16)))
(assert (not (= x07 (_ bv3 8))))
(assert (not (= x07 (_ bv6 8))))
(assert (not (= x07 x26)))
(assert (not (= x07 x27)))
(assert (not (= x07 (_ bv1 8))))
(assert (not (= (_ bv5 8) x16)))
(assert (not (= (_ bv5 8) (_ bv3 8))))
(assert (not (= (_ bv5 8) (_ bv6 8))))
(assert (not (= (_ bv5 8) x26)))
(assert (not (= (_ bv5 8) x27)))
(assert (not (= (_ bv5 8) (_ bv1 8))))
(assert (not (= x16 (_ bv3 8))))
(assert (not (= x16 (_ bv6 8))))
(assert (not (= x16 x26)))
(assert (not (= x16 x27)))
(assert (not (= x16 (_ bv1 8))))
(assert (not (= (_ bv3 8) (_ bv6 8))))
(assert (not (= (_ bv3 8) x26)))
(assert (not (= (_ bv3 8) x27)))
(assert (not (= (_ bv3 8) (_ bv1 8))))
(assert (not (= (_ bv6 8) x26)))
(assert (not (= (_ bv6 8) x27)))
(assert (not (= (_ bv6 8) (_ bv1 8))))
(assert (not (= x26 x27)))
(assert (not (= x26 (_ bv1 8))))
(assert (not (= x27 (_ bv1 8))))
(assert (not (= (_ bv6 8) (_ bv9 8))))
(assert (not (= (_ bv6 8) x32)))
(assert (not (= (_ bv6 8) x40)))
(assert (not (= (_ bv6 8) x41)))
(assert (not (= (_ bv6 8) (_ bv8 8))))
(assert (not (= (_ bv6 8) x50)))
(assert (not (= (_ bv6 8) x51)))
(assert (not (= (_ bv6 8) (_ bv3 8))))
(assert (not (= (_ bv9 8) x32)))
(assert (not (= (_ bv9 8) x40)))
(assert (not (= (_ bv9 8) x41)))
(assert (not (= (_ bv9 8) (_ bv8 8))))
(assert (not (= (_ bv9 8) x50)))
(assert (not (= (_ bv9 8) x51)))
(assert (not (= (_ bv9 8) (_ bv3 8))))
(assert (not (= x32 x40)))
(assert (not (= x32 x41)))
(assert (not (= x32 (_ bv8 8))))
(assert (not (= x32 x50)))
(assert (not (= x32 x51)))
(assert (not (= x32 (_ bv3 8))))
(assert (not (= x40 x41)))
(assert (not (= x40 (_ bv8 8))))
(assert (not (= x40 x50)))
(assert (not (= x40 x51)))
(assert (not (= x40 (_ bv3 8))))
(assert (not (= x41 (_ bv8 8))))
(assert (not (= x41 x50)))
(assert (not (= x41 x51)))
(assert (not (= x41 (_ bv3 8))))
(assert (not (= (_ bv8 8) x50)))
(assert (not (= (_ bv8 8) x51)))
(assert (not (= (_ bv8 8) (_ bv3 8))))
(assert (not (= x50 x51)))
(assert (not (= x50 (_ bv3 8))))
(assert (not (= x51 (_ bv3 8))))
(assert (not (= x33 x34)))
(assert (not (= x33 (_ bv3 8))))
(assert (not (= x33 (_ bv7 8))))
(assert (not (= x33 x44)))
(assert (not (= x33 x45)))
(assert (not (= x33 x53)))
(assert (not (= x33 (_ bv5 8))))
(assert (not (= x33 x55)))
(assert (not (= x34 (_ bv3 8))))
(assert (not (= x34 (_ bv7 8))))
(assert (not (= x34 x44)))
(assert (not (= x34 x45)))
(assert (not (= x34 x53)))
(assert (not (= x34 (_ bv5 8))))
(assert (not (= x34 x55)))
(assert (not (= (_ bv3 8) (_ bv7 8))))
(assert (not (= (_ bv3 8) x44)))
(assert (not (= (_ bv3 8) x45)))
(assert (not (= (_ bv3 8) x53)))
(assert (not (= (_ bv3 8) (_ bv5 8))))
(assert (not (= (_ bv3 8) x55)))
(assert (not (= (_ bv7 8) x44)))
(assert (not (= (_ bv7 8) x45)))
(assert (not (= (_ bv7 8) x53)))
(assert (not (= (_ bv7 8) (_ bv5 8))))
(assert (not (= (_ bv7 8) x55)))
(assert (not (= x44 x45)))
(assert (not (= x44 x53)))
(assert (not (= x44 (_ bv5 8))))
(assert (not (= x44 x55)))
(assert (not (= x45 x53)))
(assert (not (= x45 (_ bv5 8))))
(assert (not (= x45 x55)))
(assert (not (= x53 (_ bv5 8))))
(assert (not (= x53 x55)))
(assert (not (= (_ bv5 8) x55)))
(assert (not (= x36 (_ bv4 8))))
(assert (not (= x36 x38)))
(assert (not (= x36 (_ bv9 8))))
(assert (not (= x36 x47)))
(assert (not (= x36 x48)))
(assert (not (= x36 x56)))
(assert (not (= x36 (_ bv2 8))))
(assert (not (= x36 (_ bv8 8))))
(assert (not (= (_ bv4 8) x38)))
(assert (not (= (_ bv4 8) (_ bv9 8))))
(assert (not (= (_ bv4 8) x47)))
(assert (not (= (_ bv4 8) x48)))
(assert (not (= (_ bv4 8) x56)))
(assert (not (= (_ bv4 8) (_ bv2 8))))
(assert (not (= (_ bv4 8) (_ bv8 8))))
(assert (not (= x38 (_ bv9 8))))
(assert (not (= x38 x47)))
(assert (not (= x38 x48)))
(assert (not (= x38 x56)))
(assert (not (= x38 (_ bv2 8))))
(assert (not (= x38 (_ bv8 8))))
(assert (not (= (_ bv9 8) x47)))
(assert (not (= (_ bv9 8) x48)))
(assert (not (= (_ bv9 8) x56)))
(assert (not (= (_ bv9 8) (_ bv2 8))))
(assert (not (= (_ bv9 8) (_ bv8 8))))
(assert (not (= x47 x48)))
(assert (not (= x47 x56)))
(assert (not (= x47 (_ bv2 8))))
(assert (not (= x47 (_ bv8 8))))
(assert (not (= x48 x56)))
(assert (not (= x48 (_ bv2 8))))
(assert (not (= x48 (_ bv8 8))))
(assert (not (= x56 (_ bv2 8))))
(assert (not (= x56 (_ bv8 8))))
(assert (not (= (_ bv2 8) (_ bv8 8))))
(assert (not (= x60 x61)))
(assert (not (= x60 (_ bv4 8))))
(assert (not (= x60 x70)))
(assert (not (= x60 (_ bv7 8))))
(assert (not (= x60 x72)))
(assert (not (= x60 x80)))
(assert (not (= x60 x81)))
(assert (not (= x60 (_ bv5 8))))
(assert (not (= x61 (_ bv4 8))))
(assert (not (= x61 x70)))
(assert (not (= x61 (_ bv7 8))))
(assert (not (= x61 x72)))
(assert (not (= x61 x80)))
(assert (not (= x61 x81)))
(assert (not (= x61 (_ bv5 8))))
(assert (not (= (_ bv4 8) x70)))
(assert (not (= (_ bv4 8) (_ bv7 8))))
(assert (not (= (_ bv4 8) x72)))
(assert (not (= (_ bv4 8) x80)))
(assert (not (= (_ bv4 8) x81)))
(assert (not (= (_ bv4 8) (_ bv5 8))))
(assert (not (= x70 (_ bv7 8))))
(assert (not (= x70 x72)))
(assert (not (= x70 x80)))
(assert (not (= x70 x81)))
(assert (not (= x70 (_ bv5 8))))
(assert (not (= (_ bv7 8) x72)))
(assert (not (= (_ bv7 8) x80)))
(assert (not (= (_ bv7 8) x81)))
(assert (not (= (_ bv7 8) (_ bv5 8))))
(assert (not (= x72 x80)))
(assert (not (= x72 x81)))
(assert (not (= x72 (_ bv5 8))))
(assert (not (= x80 x81)))
(assert (not (= x80 (_ bv5 8))))
(assert (not (= x81 (_ bv5 8))))
(assert (not (= x63 x64)))
(assert (not (= x63 (_ bv9 8))))
(assert (not (= x63 (_ bv1 8))))
(assert (not (= x63 x74)))
(assert (not (= x63 x75)))
(assert (not (= x63 x83)))
(assert (not (= x63 (_ bv2 8))))
(assert (not (= x63 (_ bv8 8))))
(assert (not (= x64 (_ bv9 8))))
(assert (not (= x64 (_ bv1 8))))
(assert (not (= x64 x74)))
(assert (not (= x64 x75)))
(assert (not (= x64 x83)))
(assert (not (= x64 (_ bv2 8))))
(assert (not (= x64 (_ bv8 8))))
(assert (not (= (_ bv9 8) (_ bv1 8))))
(assert (not (= (_ bv9 8) x74)))
(assert (not (= (_ bv9 8) x75)))
(assert (not (= (_ bv9 8) x83)))
(assert (not (= (_ bv9 8) (_ bv2 8))))
(assert (not (= (_ bv9 8) (_ bv8 8))))
(assert (not (= (_ bv1 8) x74)))
(assert (not (= (_ bv1 8) x75)))
(assert (not (= (_ bv1 8) x83)))
(assert (not (= (_ bv1 8) (_ bv2 8))))
(assert (not (= (_ bv1 8) (_ bv8 8))))
(assert (not (= x74 x75)))
(assert (not (= x74 x83)))
(assert (not (= x74 (_ bv2 8))))
(assert (not (= x74 (_ bv8 8))))
(assert (not (= x75 x83)))
(assert (not (= x75 (_ bv2 8))))
(assert (not (= x75 (_ bv8 8))))
(assert (not (= x83 (_ bv2 8))))
(assert (not (= x83 (_ bv8 8))))
(assert (not (= (_ bv2 8) (_ bv8 8))))
(assert (not (= (_ bv3 8) (_ bv6 8))))
(assert (not (= (_ bv3 8) x68)))
(assert (not (= (_ bv3 8) x76)))
(assert (not (= (_ bv3 8) x77)))
(assert (not (= (_ bv3 8) (_ bv9 8))))
(assert (not (= (_ bv3 8) x86)))
(assert (not (= (_ bv3 8) (_ bv7 8))))
(assert (not (= (_ bv3 8) x88)))
(assert (not (= (_ bv6 8) x68)))
(assert (not (= (_ bv6 8) x76)))
(assert (not (= (_ bv6 8) x77)))
(assert (not (= (_ bv6 8) (_ bv9 8))))
(assert (not (= (_ bv6 8) x86)))
(assert (not (= (_ bv6 8) (_ bv7 8))))
(assert (not (= (_ bv6 8) x88)))
(assert (not (= x68 x76)))
(assert (not (= x68 x77)))
(assert (not (= x68 (_ bv9 8))))
(assert (not (= x68 x86)))
(assert (not (= x68 (_ bv7 8))))
(assert (not (= x68 x88)))
(assert (not (= x76 x77)))
(assert (not (= x76 (_ bv9 8))))
(assert (not (= x76 x86)))
(assert (not (= x76 (_ bv7 8))))
(assert (not (= x76 x88)))
(assert (not (= x77 (_ bv9 8))))
(assert (not (= x77 x86)))
(assert (not (= x77 (_ bv7 8))))
(assert (not (= x77 x88)))
(assert (not (= (_ bv9 8) x86)))
(assert (not (= (_ bv9 8) (_ bv7 8))))
(assert (not (= (_ bv9 8) x88)))
(assert (not (= x86 (_ bv7 8))))
(assert (not (= x86 x88)))
(assert (not (= (_ bv7 8) x88)))
(check-sat)
(exit)
